c description: Random 2-CNF over 15 variables and 30 clauses
c generator: CNFgen (0.9.0)
c copyright: (C) 2012-2020 Massimo Lauria <massimo.lauria@uniroma1.it>
c url: https://massimolauria.net/cnfgen
c
p cnf 15 30
4 -9 0
10 14 0
5 15 0
-4 10 0
-11 14 0
3 -5 0
-6 -10 0
-11 -15 0
-3 14 0
-4 -15 0
5 -13 0
-3 13 0
-5 12 0
-13 -15 0
12 -13 0
-2 13 0
7 -8 0
-8 -9 0
-1 -4 0
-1 -3 0
4 -5 0
-6 7 0
1 -8 0
2 7 0
1 3 0
8 -10 0
-6 10 0
11 15 0
-12 -14 0
2 -14 0